54
1 0 37
2 0 3
2 1 25
3 0 61
3 1 34
3 2 35
4 0 23
4 1 36
4 2 9
4 3 42
5 0 60
5 1 64
5 2 39
5 3 57
5 4 46
6 0 10
6 1 59
6 2 21
6 3 65
6 4 14
6 5 22
7 0 2
7 1 2
7 2 63
7 3 50
7 4 43
7 5 2
7 6 35
8 0 13
8 1 19
8 2 1
8 3 33
8 4 62
8 5 43
8 6 56
8 7 22
9 0 5
9 1 21
9 2 63
9 3 66
9 4 52
9 5 67
9 6 24
9 7 62
9 8 39
10 0 13
10 1 33
10 2 28
10 3 9
10 4 25
10 5 67
10 6 28
10 7 63
10 8 49
10 9 44
11 0 61
11 1 18
11 2 15
11 3 42
11 4 58
11 5 52
11 6 23
11 7 8
11 8 12
11 9 12
11 10 47
12 0 1
12 1 66
12 2 25
12 3 38
12 4 53
12 5 19
12 6 34
12 7 68
12 8 19
12 9 9
12 10 68
12 11 4
13 0 67
13 1 30
13 2 52
13 3 1
13 4 19
13 5 3
13 6 46
13 7 11
13 8 54
13 9 5
13 10 25
13 11 12
13 12 28
14 0 32
14 1 61
14 2 5
14 3 58
14 4 4
14 5 47
14 6 44
14 7 21
14 8 54
14 9 61
14 10 29
14 11 30
14 12 1
14 13 7
15 0 64
15 1 51
15 2 45
15 3 63
15 4 42
15 5 4
15 6 68
15 7 7
15 8 40
15 9 42
15 10 19
15 11 62
15 12 31
15 13 13
15 14 10
16 0 14
16 1 29
16 2 2
16 3 1
16 4 15
16 5 45
16 6 43
16 7 43
16 8 7
16 9 53
16 10 39
16 11 33
16 12 55
16 13 36
16 14 68
16 15 50
17 0 39
17 1 28
17 2 40
17 3 1
17 4 32
17 5 39
17 6 51
17 7 10
17 8 37
17 9 24
17 10 44
17 11 41
17 12 32
17 13 19
17 14 27
17 15 24
17 16 67
18 0 23
18 1 11
18 2 15
18 3 17
18 4 59
18 5 22
18 6 21
18 7 2
18 8 23
18 9 61
18 10 42
18 11 35
18 12 9
18 13 46
18 14 12
18 15 51
18 16 39
18 17 67
19 0 30
19 1 30
19 2 20
19 3 64
19 4 27
19 5 20
19 6 39
19 7 41
19 8 68
19 9 19
19 10 67
19 11 33
19 12 46
19 13 43
19 14 60
19 15 10
19 16 8
19 17 68
19 18 12
20 0 65
20 1 33
20 2 46
20 3 49
20 4 18
20 5 56
20 6 24
20 7 15
20 8 37
20 9 27
20 10 1
20 11 16
20 12 11
20 13 2
20 14 67
20 15 65
20 16 67
20 17 59
20 18 67
20 19 53
21 0 58
21 1 2
21 2 3
21 3 55
21 4 46
21 5 3
21 6 26
21 7 52
21 8 52
21 9 10
21 10 48
21 11 68
21 12 28
21 13 54
21 14 35
21 15 41
21 16 12
21 17 65
21 18 21
21 19 54
21 20 9
22 0 61
22 1 63
22 2 4
22 3 3
22 4 57
22 5 21
22 6 49
22 7 28
22 8 31
22 9 24
22 10 58
22 11 45
22 12 7
22 13 59
22 14 67
22 15 68
22 16 26
22 17 35
22 18 43
22 19 50
22 20 20
22 21 28
23 0 55
23 1 1
23 2 13
23 3 65
23 4 7
23 5 19
23 6 14
23 7 39
23 8 61
23 9 8
23 10 59
23 11 58
23 12 47
23 13 59
23 14 8
23 15 15
23 16 59
23 17 36
23 18 67
23 19 61
23 20 15
23 21 53
23 22 36
24 0 67
24 1 63
24 2 65
24 3 58
24 4 64
24 5 12
24 6 35
24 7 21
24 8 45
24 9 17
24 10 14
24 11 10
24 12 65
24 13 67
24 14 7
24 15 22
24 16 18
24 17 56
24 18 67
24 19 17
24 20 47
24 21 63
24 22 62
24 23 26
25 0 62
25 1 1
25 2 8
25 3 22
25 4 32
25 5 66
25 6 10
25 7 50
25 8 21
25 9 25
25 10 10
25 11 1
25 12 62
25 13 20
25 14 56
25 15 56
25 16 10
25 17 24
25 18 18
25 19 51
25 20 51
25 21 49
25 22 44
25 23 49
25 24 4
26 0 20
26 1 43
26 2 65
26 3 31
26 4 56
26 5 6
26 6 45
26 7 35
26 8 10
26 9 4
26 10 43
26 11 2
26 12 3
26 13 33
26 14 27
26 15 13
26 16 36
26 17 65
26 18 61
26 19 44
26 20 20
26 21 30
26 22 35
26 23 26
26 24 48
26 25 60
27 0 65
27 1 28
27 2 49
27 3 4
27 4 41
27 5 60
27 6 41
27 7 9
27 8 66
27 9 66
27 10 64
27 11 42
27 12 40
27 13 56
27 14 62
27 15 1
27 16 28
27 17 16
27 18 24
27 19 2
27 20 42
27 21 1
27 22 20
27 23 16
27 24 17
27 25 67
27 26 68
28 0 49
28 1 16
28 2 23
28 3 35
28 4 56
28 5 45
28 6 41
28 7 33
28 8 20
28 9 16
28 10 34
28 11 48
28 12 16
28 13 39
28 14 36
28 15 30
28 16 48
28 17 37
28 18 60
28 19 46
28 20 5
28 21 51
28 22 10
28 23 1
28 24 10
28 25 3
28 26 59
28 27 22
29 0 61
29 1 45
29 2 7
29 3 65
29 4 23
29 5 17
29 6 6
29 7 58
29 8 44
29 9 61
29 10 10
29 11 51
29 12 53
29 13 66
29 14 15
29 15 34
29 16 11
29 17 31
29 18 37
29 19 16
29 20 12
29 21 62
29 22 50
29 23 52
29 24 27
29 25 29
29 26 54
29 27 26
29 28 65
30 0 4
30 1 15
30 2 14
30 3 41
30 4 47
30 5 3
30 6 34
30 7 65
30 8 20
30 9 35
30 10 55
30 11 21
30 12 67
30 13 52
30 14 40
30 15 2
30 16 34
30 17 38
30 18 59
30 19 14
30 20 57
30 21 13
30 22 13
30 23 9
30 24 6
30 25 68
30 26 37
30 27 60
30 28 4
30 29 66
31 0 24
31 1 5
31 2 64
31 3 35
31 4 46
31 5 29
31 6 5
31 7 35
31 8 2
31 9 54
31 10 52
31 11 62
31 12 39
31 13 56
31 14 45
31 15 46
31 16 45
31 17 26
31 18 66
31 19 58
31 20 62
31 21 27
31 22 49
31 23 5
31 24 16
31 25 43
31 26 53
31 27 38
31 28 40
31 29 58
31 30 22
32 0 51
32 1 26
32 2 13
32 3 67
32 4 63
32 5 50
32 6 33
32 7 55
32 8 30
32 9 4
32 10 25
32 11 63
32 12 45
32 13 46
32 14 64
32 15 19
32 16 17
32 17 22
32 18 39
32 19 9
32 20 67
32 21 4
32 22 7
32 23 65
32 24 59
32 25 36
32 26 20
32 27 5
32 28 15
32 29 60
32 30 44
32 31 2
33 0 15
33 1 49
33 2 51
33 3 46
33 4 62
33 5 53
33 6 43
33 7 29
33 8 47
33 9 31
33 10 7
33 11 68
33 12 61
33 13 5
33 14 53
33 15 65
33 16 49
33 17 53
33 18 29
33 19 34
33 20 65
33 21 15
33 22 54
33 23 32
33 24 2
33 25 45
33 26 1
33 27 41
33 28 24
33 29 65
33 30 22
33 31 24
33 32 10
34 0 39
34 1 42
34 2 59
34 3 64
34 4 55
34 5 6
34 6 68
34 7 47
34 8 36
34 9 2
34 10 22
34 11 10
34 12 27
34 13 36
34 14 46
34 15 54
34 16 15
34 17 35
34 18 36
34 19 39
34 20 68
34 21 42
34 22 24
34 23 25
34 24 50
34 25 40
34 26 51
34 27 38
34 28 68
34 29 22
34 30 64
34 31 41
34 32 15
34 33 50
35 0 62
35 1 8
35 2 36
35 3 6
35 4 29
35 5 5
35 6 16
35 7 26
35 8 40
35 9 68
35 10 66
35 11 68
35 12 35
35 13 19
35 14 4
35 15 54
35 16 51
35 17 12
35 18 54
35 19 5
35 20 4
35 21 53
35 22 38
35 23 27
35 24 51
35 25 23
35 26 7
35 27 5
35 28 4
35 29 40
35 30 11
35 31 53
35 32 56
35 33 59
35 34 39
36 0 38
36 1 37
36 2 25
36 3 20
36 4 20
36 5 59
36 6 52
36 7 9
36 8 29
36 9 53
36 10 57
36 11 66
36 12 21
36 13 66
36 14 11
36 15 66
36 16 46
36 17 38
36 18 57
36 19 57
36 20 67
36 21 59
36 22 48
36 23 22
36 24 49
36 25 56
36 26 52
36 27 24
36 28 54
36 29 28
36 30 36
36 31 40
36 32 53
36 33 15
36 34 45
36 35 28
37 0 31
37 1 62
37 2 8
37 3 16
37 4 68
37 5 8
37 6 37
37 7 12
37 8 54
37 9 22
37 10 52
37 11 68
37 12 42
37 13 33
37 14 35
37 15 19
37 16 57
37 17 38
37 18 62
37 19 60
37 20 47
37 21 17
37 22 5
37 23 17
37 24 58
37 25 35
37 26 6
37 27 30
37 28 68
37 29 43
37 30 13
37 31 23
37 32 52
37 33 12
37 34 51
37 35 63
37 36 41
38 0 51
38 1 40
38 2 31
38 3 24
38 4 37
38 5 41
38 6 47
38 7 28
38 8 19
38 9 54
38 10 52
38 11 64
38 12 41
38 13 1
38 14 24
38 15 30
38 16 35
38 17 27
38 18 6
38 19 53
38 20 2
38 21 55
38 22 24
38 23 10
38 24 22
38 25 6
38 26 7
38 27 66
38 28 4
38 29 4
38 30 15
38 31 27
38 32 38
38 33 64
38 34 32
38 35 8
38 36 6
38 37 32
39 0 15
39 1 36
39 2 26
39 3 21
39 4 33
39 5 31
39 6 21
39 7 43
39 8 52
39 9 4
39 10 1
39 11 11
39 12 61
39 13 46
39 14 14
39 15 56
39 16 4
39 17 31
39 18 26
39 19 66
39 20 10
39 21 22
39 22 4
39 23 50
39 24 47
39 25 38
39 26 20
39 27 66
39 28 51
39 29 61
39 30 16
39 31 57
39 32 29
39 33 9
39 34 25
39 35 6
39 36 12
39 37 27
39 38 42
40 0 35
40 1 52
40 2 65
40 3 41
40 4 7
40 5 55
40 6 47
40 7 47
40 8 61
40 9 66
40 10 8
40 11 44
40 12 42
40 13 33
40 14 18
40 15 58
40 16 36
40 17 43
40 18 59
40 19 45
40 20 10
40 21 67
40 22 57
40 23 21
40 24 43
40 25 56
40 26 41
40 27 6
40 28 7
40 29 10
40 30 21
40 31 19
40 32 17
40 33 57
40 34 30
40 35 48
40 36 57
40 37 6
40 38 45
40 39 52
41 0 1
41 1 22
41 2 64
41 3 53
41 4 42
41 5 57
41 6 5
41 7 37
41 8 54
41 9 13
41 10 28
41 11 41
41 12 44
41 13 6
41 14 5
41 15 55
41 16 55
41 17 61
41 18 24
41 19 57
41 20 66
41 21 39
41 22 58
41 23 1
41 24 61
41 25 24
41 26 35
41 27 32
41 28 37
41 29 25
41 30 48
41 31 30
41 32 5
41 33 23
41 34 2
41 35 35
41 36 4
41 37 54
41 38 35
41 39 53
41 40 13
42 0 39
42 1 12
42 2 20
42 3 4
42 4 29
42 5 27
42 6 38
42 7 6
42 8 11
42 9 23
42 10 37
42 11 43
42 12 37
42 13 37
42 14 47
42 15 45
42 16 56
42 17 26
42 18 65
42 19 41
42 20 51
42 21 63
42 22 44
42 23 32
42 24 25
42 25 27
42 26 50
42 27 11
42 28 1
42 29 31
42 30 61
42 31 25
42 32 7
42 33 55
42 34 30
42 35 67
42 36 62
42 37 62
42 38 61
42 39 36
42 40 24
42 41 55
43 0 58
43 1 68
43 2 19
43 3 21
43 4 28
43 5 35
43 6 68
43 7 16
43 8 19
43 9 19
43 10 68
43 11 5
43 12 27
43 13 59
43 14 6
43 15 46
43 16 46
43 17 61
43 18 22
43 19 40
43 20 6
43 21 40
43 22 33
43 23 11
43 24 23
43 25 54
43 26 14
43 27 45
43 28 53
43 29 17
43 30 41
43 31 62
43 32 25
43 33 39
43 34 18
43 35 18
43 36 50
43 37 63
43 38 3
43 39 53
43 40 49
43 41 27
43 42 48
44 0 12
44 1 61
44 2 51
44 3 41
44 4 50
44 5 4
44 6 49
44 7 61
44 8 6
44 9 39
44 10 26
44 11 63
44 12 1
44 13 5
44 14 9
44 15 57
44 16 23
44 17 66
44 18 3
44 19 36
44 20 28
44 21 49
44 22 9
44 23 28
44 24 17
44 25 57
44 26 28
44 27 49
44 28 1
44 29 65
44 30 63
44 31 29
44 32 16
44 33 52
44 34 9
44 35 43
44 36 22
44 37 18
44 38 11
44 39 28
44 40 12
44 41 50
44 42 15
44 43 16
45 0 50
45 1 46
45 2 49
45 3 28
45 4 59
45 5 15
45 6 5
45 7 34
45 8 17
45 9 56
45 10 26
45 11 14
45 12 41
45 13 40
45 14 20
45 15 33
45 16 56
45 17 12
45 18 48
45 19 53
45 20 55
45 21 10
45 22 14
45 23 45
45 24 54
45 25 31
45 26 36
45 27 16
45 28 62
45 29 18
45 30 10
45 31 4
45 32 58
45 33 20
45 34 62
45 35 46
45 36 10
45 37 24
45 38 31
45 39 45
45 40 19
45 41 63
45 42 44
45 43 60
45 44 48
46 0 56
46 1 20
46 2 46
46 3 43
46 4 16
46 5 2
46 6 51
46 7 51
46 8 59
46 9 68
46 10 7
46 11 46
46 12 54
46 13 36
46 14 34
46 15 48
46 16 26
46 17 32
46 18 1
46 19 58
46 20 20
46 21 29
46 22 55
46 23 43
46 24 34
46 25 2
46 26 14
46 27 62
46 28 57
46 29 29
46 30 39
46 31 50
46 32 25
46 33 13
46 34 48
46 35 5
46 36 55
46 37 29
46 38 47
46 39 54
46 40 42
46 41 68
46 42 30
46 43 26
46 44 37
46 45 64
47 0 23
47 1 7
47 2 60
47 3 27
47 4 53
47 5 49
47 6 30
47 7 63
47 8 29
47 9 3
47 10 13
47 11 61
47 12 32
47 13 50
47 14 4
47 15 13
47 16 31
47 17 15
47 18 23
47 19 35
47 20 10
47 21 43
47 22 40
47 23 10
47 24 38
47 25 20
47 26 5
47 27 61
47 28 26
47 29 59
47 30 16
47 31 18
47 32 2
47 33 24
47 34 28
47 35 45
47 36 26
47 37 42
47 38 8
47 39 50
47 40 58
47 41 67
47 42 38
47 43 12
47 44 6
47 45 15
47 46 66
48 0 62
48 1 61
48 2 54
48 3 12
48 4 12
48 5 63
48 6 24
48 7 26
48 8 67
48 9 6
48 10 54
48 11 8
48 12 7
48 13 3
48 14 18
48 15 57
48 16 27
48 17 7
48 18 8
48 19 36
48 20 18
48 21 16
48 22 39
48 23 26
48 24 32
48 25 16
48 26 41
48 27 32
48 28 38
48 29 12
48 30 21
48 31 63
48 32 53
48 33 45
48 34 55
48 35 58
48 36 8
48 37 33
48 38 29
48 39 20
48 40 55
48 41 58
48 42 49
48 43 61
48 44 37
48 45 6
48 46 36
48 47 63
49 0 18
49 1 37
49 2 5
49 3 62
49 4 3
49 5 22
49 6 9
49 7 12
49 8 48
49 9 47
49 10 21
49 11 47
49 12 5
49 13 33
49 14 11
49 15 32
49 16 60
49 17 68
49 18 66
49 19 3
49 20 68
49 21 65
49 22 60
49 23 62
49 24 19
49 25 38
49 26 5
49 27 4
49 28 16
49 29 59
49 30 9
49 31 53
49 32 32
49 33 65
49 34 44
49 35 36
49 36 24
49 37 29
49 38 67
49 39 32
49 40 41
49 41 32
49 42 21
49 43 3
49 44 44
49 45 35
49 46 49
49 47 30
49 48 53
50 0 58
50 1 3
50 2 18
50 3 55
50 4 16
50 5 17
50 6 27
50 7 35
50 8 4
50 9 1
50 10 60
50 11 66
50 12 42
50 13 47
50 14 41
50 15 67
50 16 44
50 17 41
50 18 49
50 19 51
50 20 10
50 21 43
50 22 32
50 23 42
50 24 10
50 25 26
50 26 37
50 27 57
50 28 50
50 29 30
50 30 13
50 31 18
50 32 1
50 33 31
50 34 2
50 35 40
50 36 17
50 37 11
50 38 49
50 39 47
50 40 43
50 41 38
50 42 30
50 43 65
50 44 37
50 45 43
50 46 45
50 47 54
50 48 60
50 49 47
51 0 30
51 1 42
51 2 16
51 3 4
51 4 45
51 5 7
51 6 47
51 7 33
51 8 39
51 9 30
51 10 48
51 11 60
51 12 47
51 13 62
51 14 15
51 15 67
51 16 67
51 17 67
51 18 1
51 19 8
51 20 50
51 21 51
51 22 4
51 23 17
51 24 49
51 25 33
51 26 5
51 27 58
51 28 28
51 29 36
51 30 66
51 31 26
51 32 24
51 33 59
51 34 38
51 35 26
51 36 4
51 37 68
51 38 49
51 39 28
51 40 4
51 41 11
51 42 14
51 43 30
51 44 47
51 45 56
51 46 26
51 47 29
51 48 7
51 49 1
51 50 59
52 0 2
52 1 27
52 2 3
52 3 53
52 4 54
52 5 58
52 6 40
52 7 64
52 8 25
52 9 49
52 10 11
52 11 31
52 12 32
52 13 1
52 14 34
52 15 28
52 16 34
52 17 25
52 18 32
52 19 41
52 20 28
52 21 39
52 22 18
52 23 30
52 24 63
52 25 61
52 26 16
52 27 49
52 28 15
52 29 56
52 30 45
52 31 40
52 32 63
52 33 61
52 34 68
52 35 9
52 36 47
52 37 12
52 38 47
52 39 24
52 40 67
52 41 63
52 42 41
52 43 16
52 44 47
52 45 4
52 46 26
52 47 41
52 48 51
52 49 3
52 50 40
52 51 42
53 0 63
53 1 38
53 2 16
53 3 14
53 4 18
53 5 10
53 6 14
53 7 59
53 8 9
53 9 15
53 10 37
53 11 36
53 12 43
53 13 56
53 14 49
53 15 28
53 16 66
53 17 31
53 18 18
53 19 12
53 20 62
53 21 7
53 22 29
53 23 53
53 24 32
53 25 17
53 26 55
53 27 41
53 28 40
53 29 38
53 30 64
53 31 8
53 32 13
53 33 28
53 34 31
53 35 66
53 36 11
53 37 32
53 38 14
53 39 9
53 40 58
53 41 9
53 42 39
53 43 56
53 44 26
53 45 20
53 46 48
53 47 3
53 48 50
53 49 5
53 50 33
53 51 4
53 52 32
